*SENSE:Minimize
NAME          MODEL
ROWS
 N  OBJ
 G  C0000000
 L  C0000001
 G  C0000002
 L  C0000003
 G  C0000004
 L  C0000005
 G  C0000006
 L  C0000007
COLUMNS
    X0000000  C0000000   5.000000000000e-01
    X0000000  C0000001  -5.000000000000e-01
    X0000000  C0000002  -5.000000000000e-04
    X0000000  C0000003  -3.000000000000e-03
    X0000000  C0000004   1.000000000000e+00
    X0000000  C0000005  -3.000000000000e+00
    X0000000  C0000006   5.000000000000e-01
    X0000000  C0000007  -5.000000000000e-01
    X0000000  OBJ        6.750000000000e+02
    X0000001  C0000000  -1.000000000000e+00
    X0000001  C0000001  -2.000000000000e+00
    X0000001  C0000002  -1.500000000000e-03
    X0000001  C0000003  -4.000000000000e-03
    X0000001  C0000004   3.000000000000e+00
    X0000001  C0000005  -1.000000000000e+00
    X0000001  C0000006  -1.500000000000e+00
    X0000001  C0000007  -2.500000000000e+00
    X0000001  OBJ        6.000000000000e+02
    X0000002  C0000000  -5.000000000000e-01
    X0000002  C0000001  -1.500000000000e+00
    X0000002  C0000002   2.500000000000e-03
    X0000002  C0000003   0.000000000000e+00
    X0000002  C0000004   3.000000000000e+00
    X0000002  C0000005  -1.000000000000e+00
    X0000002  C0000006   5.000000000000e-01
    X0000002  C0000007  -5.000000000000e-01
    X0000002  OBJ        6.600000000000e+02
    X0000003  C0000000  -2.500000000000e+00
    X0000003  C0000001  -3.500000000000e+00
    X0000003  C0000002   6.000000000000e-03
    X0000003  C0000003   3.500000000000e-03
    X0000003  C0000004   7.000000000000e+00
    X0000003  C0000005   3.000000000000e+00
    X0000003  C0000006  -1.500000000000e+00
    X0000003  C0000007  -2.500000000000e+00
    X0000003  OBJ        5.600000000000e+02
    X0000004  C0000000   1.500000000000e+00
    X0000004  C0000001   5.000000000000e-01
    X0000004  C0000002   5.500000000000e-03
    X0000004  C0000003   3.000000000000e-03
    X0000004  C0000004   3.000000000000e+00
    X0000004  C0000005  -1.000000000000e+00
    X0000004  C0000006   5.000000000000e-01
    X0000004  C0000007  -5.000000000000e-01
    X0000004  OBJ        5.900000000000e+02
    X0000005  C0000000   5.000000000000e-01
    X0000005  C0000001  -5.000000000000e-01
    X0000005  C0000002   2.000000000000e-03
    X0000005  C0000003  -5.000000000000e-04
    X0000005  C0000004   3.000000000000e+00
    X0000005  C0000005  -1.000000000000e+00
    X0000005  C0000006  -1.500000000000e+00
    X0000005  C0000007  -2.500000000000e+00
    X0000005  OBJ        7.500000000000e+02
    X0000006  C0000000  -5.000000000000e+00
    X0000006  C0000001  -6.000000000000e+00
    X0000006  C0000002   6.500000000000e-03
    X0000006  C0000003   4.000000000000e-03
    X0000006  C0000004   7.000000000000e+00
    X0000006  C0000005   3.000000000000e+00
    X0000006  C0000006  -3.500000000000e+00
    X0000006  C0000007  -4.500000000000e+00
    X0000006  OBJ        4.600000000000e+02
    X0000007  C0000000   2.500000000000e+00
    X0000007  C0000001   1.500000000000e+00
    X0000007  C0000002  -2.500000000000e-03
    X0000007  C0000003  -5.000000000000e-03
    X0000007  C0000004   3.000000000000e+00
    X0000007  C0000005  -1.000000000000e+00
    X0000007  C0000006   4.500000000000e+00
    X0000007  C0000007   3.500000000000e+00
    X0000007  OBJ        6.200000000000e+02
    X0000008  C0000000  -3.500000000000e+00
    X0000008  C0000001  -4.500000000000e+00
    X0000008  C0000002   5.500000000000e-03
    X0000008  C0000003   3.000000000000e-03
    X0000008  C0000004   8.000000000000e+00
    X0000008  C0000005   4.000000000000e+00
    X0000008  C0000006  -1.500000000000e+00
    X0000008  C0000007  -2.500000000000e+00
    X0000008  OBJ        3.900000000000e+02
    X0000009  C0000000   3.500000000000e+00
    X0000009  C0000001   2.500000000000e+00
    X0000009  C0000002   3.500000000000e-03
    X0000009  C0000003   1.000000000000e-03
    X0000009  C0000004   4.000000000000e+00
    X0000009  C0000005   0.000000000000e+00
    X0000009  C0000006   3.500000000000e+00
    X0000009  C0000007   2.500000000000e+00
    X0000009  OBJ        7.100000000000e+02
    X0000010  C0000000  -1.500000000000e+00
    X0000010  C0000001  -2.500000000000e+00
    X0000010  C0000002  -5.000000000000e-04
    X0000010  C0000003  -3.000000000000e-03
    X0000010  C0000004   1.000000000000e+00
    X0000010  C0000005  -3.000000000000e+00
    X0000010  C0000006   5.000000000000e-01
    X0000010  C0000007  -5.000000000000e-01
    X0000010  OBJ        6.750000000000e+02
RHS
    RHS       C0000000   0.000000000000e+00
    RHS       C0000001   0.000000000000e+00
    RHS       C0000002   0.000000000000e+00
    RHS       C0000003   0.000000000000e+00
    RHS       C0000004   0.000000000000e+00
    RHS       C0000005   0.000000000000e+00
    RHS       C0000006   0.000000000000e+00
    RHS       C0000007   0.000000000000e+00
BOUNDS
